20080618 20 0 0 0
20070620 40 0 0 0
20060927 0 3200 0 0
20060616 40 0 0 0
20050620 70 0 0 0
20040720 70 0 0 0
20030717 100 0 0 0
20020522 120 0 0 0
20010329 120 6000 0 0
19990604 150 0 0 0
19980515 0 5000 0 0
19970425 231 0 0 0
